Instance: E241-22k.dat
Class:  1
240 --- number of customers (no depot)
22 --- number of vehicles
240 --- number of items
Capacity - height - width of vehicles
   200     40     20
Node - x - y - demand  Readytime Duetime
  0.00    0.00   0.00   0.00 0       234.00
  1.00    5.80   0.00  40.00  14.00   40.00
  2.00    2.90   5.00  40.00  52.00   75.00
  3.00   -2.90   5.00  40.00 151.00  170.00
  4.00   -5.80   0.00  40.00  87.00  112.00
  5.00   -2.90  -5.00  40.00  45.00   71.00
  6.00    2.90  -5.00  40.00  92.00  108.00
  7.00    8.70   5.00  40.00  22.00   45.00
  8.00    0.00  10.00  40.00 166.00  192.00
  9.00   -8.70   5.00  40.00 116.00  144.00
 10.00   -8.70  -5.00  40.00 163.00  185.00
 11.00    0.00 -10.00  40.00 175.00  205.00
 12.00    8.70  -5.00  40.00 126.00  144.00
 13.00    5.30   0.80  10.00 128.00  149.00
 14.00    3.30   4.30  10.00 169.00  198.00
 15.00    6.50  -1.30  10.00 168.00  185.00
 16.00    7.20  -2.50  20.00  39.00   66.00
 17.00    7.90  -3.80  10.00  61.00   77.00
 18.00    6.50   1.30  10.00 119.00  136.00
 19.00    7.20   2.50  20.00  64.00   90.00
 20.00    7.90   3.80  10.00  55.00   75.00
 21.00    2.00   5.00  10.00 139.00  158.00
 22.00   -2.00   5.00  10.00 168.00  186.00
 23.00    4.30   5.00  10.00 145.00  169.00
 24.00    5.80   5.00  20.00 122.00  150.00
 25.00    7.20   5.00  10.00 122.00  148.00
 26.00    2.20   6.30  10.00  31.00   61.00
 27.00    1.40   7.50  20.00  60.00   90.00
 28.00    0.70   8.80  10.00 112.00  132.00
 29.00   -3.30   4.30  10.00  86.00  116.00
 30.00   -5.30   0.80  10.00  85.00  106.00
 31.00   -2.20   6.30  10.00  48.00   67.00
 32.00   -1.40   7.50  20.00  21.00   44.00
 33.00   -0.70   8.80  10.00 189.00  205.00
 34.00   -4.30   5.00  10.00   5.00   32.00
 35.00   -5.80   5.00  20.00  40.00   64.00
 36.00   -7.20   5.00  10.00 184.00  200.00
 37.00   -5.30  -0.80  10.00  67.00   89.00
 38.00   -3.30  -4.30  10.00 107.00  126.00
 39.00   -6.50   1.30  10.00 112.00  139.00
 40.00   -7.20   2.50  20.00 171.00  195.00
 41.00   -7.90   3.80  10.00  94.00  113.00
 42.00   -6.50  -1.30  10.00  72.00   98.00
 43.00   -7.20  -2.50  20.00  97.00  121.00
 44.00   -7.90  -3.80  10.00   6.00   32.00
 45.00   -2.00  -5.00  10.00 112.00  137.00
 46.00    2.00  -5.00  10.00  22.00   47.00
 47.00   -4.30  -5.00  10.00  39.00   62.00
 48.00   -5.80  -5.00  20.00 103.00  124.00
 49.00   -7.20  -5.00  10.00  47.00   65.00
 50.00   -2.20  -6.30  10.00 117.00  135.00
 51.00   -1.40  -7.50  20.00   7.00   31.00
 52.00   -0.70  -8.80  10.00 158.00  187.00
 53.00    3.30  -4.30  10.00  50.00   73.00
 54.00    5.30  -0.80  10.00  38.00   53.00
 55.00    2.20  -6.30  10.00 115.00  134.00
 56.00    1.40  -7.50  20.00  61.00   83.00
 57.00    0.70  -8.80  10.00 140.00  161.00
 58.00    4.30  -5.00  10.00  36.00   61.00
 59.00    5.80  -5.00  20.00  35.00   63.00
 60.00    7.20  -5.00  10.00  60.00   81.00
 61.00    7.20   0.00  40.00 107.00  133.00
 62.00    3.60   6.30  40.00 186.00  207.00
 63.00   -3.60   6.30  40.00 115.00  133.00
 64.00   -7.20   0.00  40.00 165.00  190.00
 65.00   -3.60  -6.30  40.00 155.00  171.00
 66.00    3.60  -6.30  40.00  22.00   47.00
 67.00   10.80   6.30  40.00  16.00   35.00
 68.00    0.00  12.50  40.00 162.00  180.00
 69.00  -10.80   6.30  40.00 179.00  196.00
 70.00  -10.80  -6.30  40.00 106.00  126.00
 71.00    0.00 -12.50  40.00 139.00  167.00
 72.00   10.80  -6.30  40.00  71.00  100.00
 73.00    6.70   0.90  10.00 173.00  202.00
 74.00    4.10   5.30  10.00 167.00  196.00
 75.00    8.10  -1.60  10.00 128.00  149.00
 76.00    9.00  -3.10  20.00  33.00   56.00
 77.00    9.90  -4.70  10.00  72.00   88.00
 78.00    8.10   1.60  10.00  75.00   91.00
 79.00    9.00   3.10  20.00  60.00   75.00
 80.00    9.90   4.70  10.00 103.00  121.00
 81.00    2.50   6.30  10.00  81.00  101.00
 82.00   -2.50   6.30  10.00  18.00   33.00
 83.00    5.40   6.30  10.00  26.00   43.00
 84.00    7.20   6.30  20.00  17.00   41.00
 85.00    9.00   6.30  10.00  38.00   66.00
 86.00    2.70   7.80  10.00 167.00  183.00
 87.00    1.80   9.40  20.00  61.00   87.00
 88.00    0.90  10.90  10.00 137.00  165.00
 89.00   -4.10   5.30  10.00  88.00  117.00
 90.00   -6.70   0.90  10.00 138.00  159.00
 91.00   -2.70   7.80  10.00 156.00  171.00
 92.00   -1.80   9.40  20.00 154.00  178.00
 93.00   -0.90  10.90  10.00  24.00   42.00
 94.00   -5.40   6.30  10.00 118.00  138.00
 95.00   -7.20   6.30  20.00  40.00   56.00
 96.00   -9.00   6.30  10.00 116.00  144.00
 97.00   -6.70  -0.90  10.00  98.00  126.00
 98.00   -4.10  -5.30  10.00 105.00  127.00
 99.00   -8.10   1.60  10.00 103.00  127.00
100.00   -9.00   3.10  20.00  48.00   76.00
101.00   -9.90   4.70  10.00  42.00   68.00
102.00   -8.10  -1.60  10.00  83.00   99.00
103.00   -9.00  -3.10  20.00  94.00  114.00
104.00   -9.90  -4.70  10.00 166.00  185.00
105.00   -2.50  -6.30  10.00  93.00  115.00
106.00    2.50  -6.30  10.00  73.00   93.00
107.00   -5.40  -6.30  10.00 192.00  209.00
108.00   -7.20  -6.30  20.00 186.00  206.00
109.00   -9.00  -6.30  10.00  77.00   96.00
110.00   -2.70  -7.80  10.00  79.00  107.00
111.00   -1.80  -9.40  20.00  53.00   80.00
112.00   -0.90 -10.90  10.00  90.00  120.00
113.00    4.10  -5.30  10.00 100.00  125.00
114.00    6.70  -0.90  10.00 101.00  130.00
115.00    2.70  -7.80  10.00  74.00  102.00
116.00    1.80  -9.40  20.00 115.00  131.00
117.00    0.90 -10.90  10.00  84.00  106.00
118.00    5.40  -6.30  10.00 122.00  142.00
119.00    7.20  -6.30  20.00  99.00  123.00
120.00    9.00  -6.30  10.00  37.00   63.00
121.00    9.00   0.00  40.00 179.00  194.00
122.00    4.50   7.80  40.00  60.00   85.00
123.00   -4.50   7.80  40.00  65.00   85.00
124.00   -9.00   0.00  40.00 138.00  164.00
125.00   -4.50  -7.80  40.00  32.00   48.00
126.00    4.50  -7.80  40.00 132.00  151.00
127.00   13.50   7.80  40.00 150.00  165.00
128.00    0.00  15.60  40.00  52.00   81.00
129.00  -13.50   7.80  40.00  96.00  124.00
130.00  -13.50  -7.80  40.00 123.00  148.00
131.00    0.00 -15.60  40.00  54.00   69.00
132.00   13.50  -7.80  40.00 110.00  136.00
133.00    8.30   1.20  10.00 123.00  145.00
134.00    5.20   6.60  10.00  58.00   82.00
135.00   10.10  -2.00  10.00 156.00  185.00
136.00   11.30  -3.90  20.00  25.00   50.00
137.00   12.40  -5.90  10.00 126.00  141.00
138.00   10.10   2.00  10.00 146.00  170.00
139.00   11.30   3.90  20.00  59.00   87.00
140.00   12.40   5.90  10.00 140.00  155.00
141.00    3.20   7.80  10.00 102.00  117.00
142.00   -3.20   7.80  10.00  83.00  100.00
143.00    6.80   7.80  10.00 147.00  162.00
144.00    9.00   7.80  20.00  24.00   49.00
145.00   11.30   7.80  10.00  94.00  121.00
146.00    3.40   9.80  10.00  31.00   54.00
147.00    2.30  11.70  20.00  33.00   51.00
148.00    1.10  13.70  10.00  79.00   99.00
149.00   -5.20   6.60  10.00 180.00  206.00
150.00   -8.30   1.20  10.00  52.00   80.00
151.00   -3.40   9.80  10.00 174.00  202.00
152.00   -2.30  11.70  20.00  14.00   31.00
153.00   -1.10  13.70  10.00  58.00   73.00
154.00   -6.80   7.80  10.00 135.00  150.00
155.00   -9.00   7.80  20.00  34.00   64.00
156.00  -11.30   7.80  10.00 158.00  186.00
157.00   -8.30  -1.20  10.00  20.00   39.00
158.00   -5.20  -6.60  10.00 161.00  181.00
159.00  -10.10   2.00  10.00  95.00  117.00
160.00  -11.30   3.90  20.00  10.00   40.00
161.00  -12.40   5.90  10.00  54.00   82.00
162.00  -10.10  -2.00  10.00 177.00  207.00
163.00  -11.30  -3.90  20.00 156.00  176.00
164.00  -12.40  -5.90  10.00  83.00  113.00
165.00   -3.20  -7.80  10.00 164.00  192.00
166.00    3.20  -7.80  10.00 142.00  157.00
167.00   -6.80  -7.80  10.00  69.00   93.00
168.00   -9.00  -7.80  20.00  44.00   62.00
169.00  -11.30  -7.80  10.00  47.00   74.00
170.00   -3.40  -9.80  10.00 111.00  132.00
171.00   -2.30 -11.70  20.00 126.00  153.00
172.00   -1.10 -13.70  10.00 136.00  164.00
173.00    5.20  -6.60  10.00 131.00  152.00
174.00    8.30  -1.20  10.00  97.00  117.00
175.00    3.40  -9.80  10.00  69.00   90.00
176.00    2.30 -11.70  20.00  39.00   60.00
177.00    1.10 -13.70  10.00  96.00  120.00
178.00    6.80  -7.80  10.00 168.00  195.00
179.00    9.00  -7.80  20.00 119.00  136.00
180.00   11.30  -7.80  10.00 142.00  169.00
181.00   11.30   0.00  40.00  47.00   64.00
182.00    5.60   9.80  40.00 173.00  190.00
183.00   -5.60   9.80  40.00 125.00  148.00
184.00  -11.30   0.00  40.00 167.00  189.00
185.00   -5.60  -9.80  40.00 181.00  199.00
186.00    5.60  -9.80  40.00 148.00  171.00
187.00   16.90   9.80  40.00  32.00   51.00
188.00    0.00  19.50  40.00  59.00   77.00
189.00  -16.90   9.80  40.00 102.00  131.00
190.00  -16.90  -9.80  40.00 178.00  208.00
191.00    0.00 -19.50  40.00 135.00  153.00
192.00   16.90  -9.80  40.00  87.00  107.00
193.00   10.40   1.50  10.00 115.00  141.00
194.00    6.50   8.30  10.00  69.00   90.00
195.00   12.70  -2.40  10.00  66.00   87.00
196.00   14.10  -4.90  20.00 148.00  164.00
197.00   15.50  -7.30  10.00 177.00  201.00
198.00   12.70   2.40  10.00  77.00   92.00
199.00   14.10   4.90  20.00 110.00  135.00
200.00   15.50   7.30  10.00  70.00   91.00
201.00    3.90   9.80  10.00  92.00  112.00
202.00   -3.90   9.80  10.00  60.00   89.00
203.00    8.50   9.80  10.00  80.00  102.00
204.00   11.30   9.80  20.00 157.00  176.00
205.00   14.10   9.80  10.00  43.00   69.00
206.00    4.20  12.20  10.00  41.00   71.00
207.00    2.80  14.60  20.00  11.00   36.00
208.00    1.40  17.10  10.00 142.00  170.00
209.00   -6.50   8.30  10.00 181.00  197.00
210.00  -10.40   1.50  10.00  65.00   91.00
211.00   -4.20  12.20  10.00  82.00  108.00
212.00   -2.80  14.60  20.00  46.00   73.00
213.00   -1.40  17.10  10.00 116.00  143.00
214.00   -8.50   9.80  10.00 146.00  173.00
215.00  -11.30   9.80  20.00 176.00  192.00
216.00  -14.10   9.80  10.00 142.00  159.00
217.00  -10.40  -1.50  10.00 146.00  165.00
218.00   -6.50  -8.30  10.00 173.00  193.00
219.00  -12.70   2.40  10.00  17.00   33.00
220.00  -14.10   4.90  20.00  48.00   72.00
221.00  -15.50   7.30  10.00  99.00  122.00
222.00  -12.70  -2.40  10.00  49.00   79.00
223.00  -14.10  -4.90  20.00 184.00  199.00
224.00  -15.50  -7.30  10.00  25.00   51.00
225.00   -3.90  -9.80  10.00 105.00  131.00
226.00    3.90  -9.80  10.00 146.00  164.00
227.00   -8.50  -9.80  10.00 182.00  205.00
228.00  -11.30  -9.80  20.00 108.00  134.00
229.00  -14.10  -9.80  10.00 180.00  207.00
230.00   -4.20 -12.20  10.00  39.00   59.00
231.00   -2.80 -14.60  20.00  90.00  114.00
232.00   -1.40 -17.10  10.00  26.00   54.00
233.00    6.50  -8.30  10.00 119.00  140.00
234.00   10.40  -1.50  10.00 176.00  197.00
235.00    4.20 -12.20  10.00   9.00   36.00
236.00    2.80 -14.60  20.00 150.00  180.00
237.00    1.40 -17.10  10.00 117.00  140.00
238.00    8.50  -9.80  10.00  74.00  102.00
239.00   11.30  -9.80  20.00  10.00   39.00
240.00   14.10  -9.80  10.00  58.00   82.00
Node - number of items - h - w for each item
    0   0
    1   2    5   18   32    3
    2   1   11    6
    3   2   13    8   10    7
    4   1   13    5
    5   1    8    5
    6   2   10    9   15    5
    7   1   31    4
    8   2   10    5   22    4
    9   2   17    8   17    8
   10   1   15    7
   11   1    5   17
   12   2   10    9   24    2
   13   2    5   15   14    7
   14   1    6   13
   15   1   12    9
   16   1   26    3
   17   2    8   13   29    4
   18   1   18    8
   19   1   15    8
   20   1   11    5
   21   2    8    9   34    3
   22   1   27    2
   23   1    4   10
   24   2   13    8   33    3
   25   2    4   15   18    5
   26   1    4   15
   27   2    7   18   10    6
   28   2   19    4   20    2
   29   2    5   17    8    6
   30   1    5   15
   31   1    8   17
   32   2    5   10   20    8
   33   2    6   16   13    9
   34   2    7   16   32    3
   35   2    7   10    5    9
   36   2   18    7   18    6
   37   2   15    6   26    2
   38   2   32    3   32    3
   39   2    4   17   32    2
   40   1    8   15
   41   1   17    3
   42   1   21    2
   43   2   14    8   13    4
   44   1   20    9
   45   2    8   18   17    8
   46   1   35    3
   47   1   30    3
   48   2    7   14   28    2
   49   1    9    7
   50   2    5   16   28    4
   51   2   19    7   18    5
   52   1   32    3
   53   2    9   10   19    3
   54   2   12    8   34    3
   55   2    5   16   15    8
   56   2   17    3   26    2
   57   1   13    7
   58   2   13    9    6    8
   59   2    7   13   15    9
   60   1   27    3
   61   2   15    8   12    5
   62   1   17    6
   63   1   19   10
   64   1   34    2
   65   1   15    5
   66   1   16    9
   67   2   18    7   35    3
   68   2    7   15   22    3
   69   2   16    7   22    3
   70   2    5   15   17    6
   71   2    5   10   34    3
   72   2    5   14   11   10
   73   2    6    9   16    7
   74   2   13    8   11    5
   75   1   19    6
   76   1    4   11
   77   1    8   17
   78   1    5   12
   79   2   35    3   17    3
   80   2   12    5   32    4
   81   2   12    6   29    2
   82   2    8   12   20    3
   83   1    4   18
   84   1   28    4
   85   1   10    7
   86   2    7   14   31    2
   87   2   15    5   21    3
   88   1    6   13
   89   2   32    4   18    3
   90   1   20    3
   91   2    7   16   33    3
   92   1    7    9
   93   1   31    4
   94   2   34    2   16    2
   95   1    5   17
   96   1   17    7
   97   1   27    2
   98   1   10    6
   99   2    7   17    4   14
  100   2   22    3   24    2
  101   2    6   15   15    5
  102   1   36    4
  103   2    6   11   10    9
  104   1   18    4
  105   1   14    6
  106   1   21    3
  107   2    4   16   18    5
  108   1    7   12
  109   1    4   18
  110   1    8   11
  111   2   11    9   35    2
  112   1   16    5
  113   2    6   14    7    9
  114   1   32    2
  115   2    5   14   25    3
  116   2   21    4   27    3
  117   1   18   10
  118   1   14    6
  119   1   35    3
  120   2   12    8   14    7
  121   1   21    2
  122   2   14    4   21    2
  123   2   17    9   17    4
  124   2   10    5   13    4
  125   2    5   10   10    8
  126   2   14    5   10    5
  127   2    7   15    6   10
  128   2    7   12   17    3
  129   2   19    8   23    4
  130   1   32    3
  131   1   10    4
  132   1   24    2
  133   2    8    9   16    7
  134   2   18    6   11    6
  135   1    4   16
  136   2    5    9   16    4
  137   1   18    5
  138   2   13    8   30    3
  139   2   17    6   30    3
  140   2    6   13    7    8
  141   2    5   16   29    3
  142   1   18    7
  143   1   31    4
  144   1   12    6
  145   2    8    6   11    5
  146   1    6   12
  147   1   30    2
  148   1   16    3
  149   2    4   14   26    4
  150   2   18    5   25    3
  151   1   19    7
  152   2    8   11   10    8
  153   2    7   13    7   10
  154   1   18    9
  155   1   22    3
  156   2    5   11   19    3
  157   1   19    3
  158   1    8    7
  159   1   35    3
  160   1    7   10
  161   1    6   11
  162   2   14    6   24    2
  163   2    8    5   25    3
  164   2   17    7   22    3
  165   2    5   12   28    4
  166   1   11    7
  167   2    8   15   24    2
  168   2    5   16   14    7
  169   1   33    3
  170   1   14    4
  171   2    5   13   26    2
  172   2    7   11   20    9
  173   2   10   10   20    5
  174   2   30    3   34    2
  175   1   30    2
  176   2    9    7   32    3
  177   1   25    4
  178   2   16   10   25    2
  179   2    6   16    4    9
  180   1   19    8
  181   2   17    4   18    2
  182   2    7   18    8   14
  183   2   32    3   23    3
  184   1   10   10
  185   1   14    4
  186   1   14    9
  187   1    6   16
  188   1   10    7
  189   1   16    4
  190   2    5   18   25    3
  191   2    5   13   11    6
  192   1    6   11
  193   1   16    5
  194   1   14    8
  195   1   24    2
  196   1    7   17
  197   2    9    9   14    6
  198   2   29    4   22    3
  199   2    6   17   23    3
  200   1   13    6
  201   1    7   11
  202   1   20    8
  203   2    8   12   17    2
  204   2    7   17    5   12
  205   2    5   13   19    6
  206   2   15    8   29    2
  207   2   10    7   18    2
  208   1   34    3
  209   2    7   12    6    9
  210   2    7   18    4   11
  211   1   28    3
  212   2    7   13    5   13
  213   1   18    5
  214   2   35    3   20    2
  215   2   15    9   18    4
  216   2    6   10   31    2
  217   2    7   16    9    5
  218   1    5   13
  219   1   13    9
  220   2   18    9   18    3
  221   2   13    7   19    4
  222   1   14    7
  223   2    4   16    6   15
  224   1   28    2
  225   1   15    5
  226   1   11    7
  227   2    5   14   33    3
  228   1    6   17
  229   2   15    9   31    3
  230   2    5   15   19    3
  231   2    7   11   19    9
  232   2    7   12   27    3
  233   1   17    6
  234   2    7   11   22    2
  235   2   15    6   26    3
  236   2   12    6   30    4
  237   2   20    4   28    3
  238   2   14    6   14    6
  239   2    8   13    5   13
  240   2   22    4   26    2
